(set-info :status unknown)
(declare-fun a2 () Real)
(declare-fun a1 () Real)
(declare-fun a0 () Real)
(assert
 (forall ((x1 Real) (x2 Real) )(let (($x65 (>= (+ (+ a0 (* a1 (^ x1 2.0))) (* a2 (^ x2 2.0))) 0.0)))
 (let (($x66 (<= x2 5.0)))
 (let (($x67 (>= x2 (- 5.0))))
 (let (($x68 (<= x1 5.0)))
 (let (($x69 (>= x1 (- 5.0))))
 (let (($x70 (and $x69 $x68 $x67 $x66)))
 (let (($x74 (and (>= (- (- 2.0 (^ x1 2.0)) (^ x2 2.0)) 0.0) $x70)))
 (=> $x74 $x65)))))))))
 )
(assert
 (forall ((x1 Real) (x2 Real) )(let ((?x82 (^ (+ (+ x2 (* (- (+ (^ x1 2.0) x2) 1.0) x2)) 1.0) 2.0)))
 (let ((?x87 (+ (+ a0 (* a1 (^ (- (+ (^ x1 2.0) x2) 1.0) 2.0))) (* a2 ?x82))))
 (let (($x66 (<= x2 5.0)))
 (let (($x67 (>= x2 (- 5.0))))
 (let (($x68 (<= x1 5.0)))
 (let (($x69 (>= x1 (- 5.0))))
 (let (($x70 (and $x69 $x68 $x67 $x66)))
 (let (($x91 (>= (- (- 3.0 (^ x1 2.0)) (^ x2 2.0)) 0.0)))
 (let (($x65 (>= (+ (+ a0 (* a1 (^ x1 2.0))) (* a2 (^ x2 2.0))) 0.0)))
 (=> (and $x65 $x91 $x70) (>= ?x87 0.0))))))))))))
 )
(assert
 (forall ((x1 Real) (x2 Real) )(let (($x66 (<= x2 5.0)))
 (let (($x67 (>= x2 (- 5.0))))
 (let (($x68 (<= x1 5.0)))
 (let (($x69 (>= x1 (- 5.0))))
 (let (($x70 (and $x69 $x68 $x67 $x66)))
 (let (($x65 (>= (+ (+ a0 (* a1 (^ x1 2.0))) (* a2 (^ x2 2.0))) 0.0)))
 (let (($x102 (and $x65 (not (>= (- (- 3.0 (^ x1 2.0)) (^ x2 2.0)) 0.0)) $x70)))
 (=> $x102 (<= (- (+ (- x2) (* (/ 1.0 5.0) (^ x1 2.0))) (/ 121.0 100.0)) 0.0))))))))))
 )
(check-sat)
